10
1 0 10
2 0 31
2 1 31
3 0 32
3 1 10
3 2 39
4 0 32
4 1 25
4 2 8
4 3 32
5 0 5
5 1 40
5 2 29
5 3 4
5 4 18
6 0 5
6 1 2
6 2 34
6 3 14
6 4 27
6 5 14
7 0 21
7 1 21
7 2 17
7 3 14
7 4 38
7 5 24
7 6 8
8 0 9
8 1 19
8 2 14
8 3 1
8 4 35
8 5 5
8 6 2
8 7 9
9 0 17
9 1 40
9 2 14
9 3 39
9 4 10
9 5 39
9 6 26
9 7 11
9 8 3
